208015 3934.17
3733.06 178748
184955 6998.46
8195.77 170885
69769.2 111684
133766 47602.5
56964.2 122811
158815 33605.6
21603.7 164564
31597.6 148885
124204 57249.2
184464 8603.65
170650 10415.9
27617.7 151274
74777.8 108079
81372.2 99649.1
160355 21934.9
69342.5 112534
17444.7 164572
128392 51305.1
43925.8 138046
84469.7 87581.4
14846.3 168628
24282 156198
47319.4 135252
35831.2 142932
141230 35807.6
57615.3 116370
106766 73989.1
166864 11980
92667 85736.1
108635 71725.3
32841.8 148406
35670.7 145737
51526.6 125429
50189.1 128941
154709 33681.4
133352 47621.3
48284.6 130739
117104 64031.9
162972 21634.2
93135.6 74681
3941.7 177958
136813 41028
27497.1 153809
111877 66720.4
55813.2 122919
165602 15888.5
22599.9 159354
132841 49081.2
73947.8 108487
57550.8 117259
48616.6 129574
